solution status: optimal solution found
objective value:                                    0
$_26_y                                             14 	(obj:0)
$_26_z                                             18 	(obj:0)
$_36__0_y                                          16 	(obj:0)
$_36__0_z                                          16 	(obj:0)
$_37__0_y                                          16 	(obj:0)
$_37__0_z                                          15 	(obj:0)
$_42__0_z                                           9 	(obj:0)
$_38__0_y                                          14 	(obj:0)
$_38__0_z                                          16 	(obj:0)
$_29_y                                             17 	(obj:0)
$_29_z                                             19 	(obj:0)
$_28_y                                             13 	(obj:0)
$_28_z                                             19 	(obj:0)
$_41__0_z                                          21 	(obj:0)
$_39__0_y                                          10 	(obj:0)
$_39__0_z                                          18 	(obj:0)
$_22_y                                             14 	(obj:0)
$_22_z                                             22 	(obj:0)
$_40__0_y                                          17 	(obj:0)
$_40__0_z                                          16 	(obj:0)
